p edge 20 69
e 1 2
e 1 4
e 1 8
e 1 9
e 1 14
e 2 3
e 2 4
e 2 8
e 2 9
e 2 12
e 2 15
e 2 17
e 2 19
e 2 20
e 3 4
e 3 7
e 3 10
e 3 11
e 3 16
e 3 19
e 4 6
e 4 7
e 4 8
e 4 14
e 4 15
e 4 18
e 4 19
e 5 8
e 5 13
e 5 15
e 5 16
e 6 7
e 6 9
e 6 15
e 6 19
e 7 10
e 7 11
e 7 13
e 7 16
e 7 20
e 8 10
e 8 11
e 8 14
e 8 16
e 8 17
e 8 20
e 9 14
e 9 16
e 10 14
e 10 15
e 10 17
e 11 12
e 11 13
e 11 16
e 12 13
e 12 15
e 12 20
e 13 16
e 13 20
e 14 17
e 14 18
e 14 20
e 15 18
e 15 19
e 16 17
e 16 18
e 17 19
e 17 20
e 18 20
